(set-logic ALL)
(declare-const n_VAR Int)
(assert (not (not (= n_VAR n_VAR))))
(assert (not (< n_VAR 0)))
(assert (< 1 (+ n_VAR 1)))
(assert (< 2 (+ n_VAR 1)))
(assert (< 3 (+ n_VAR 1)))
(assert (< 4 (+ n_VAR 1)))
(assert (< 5 (+ n_VAR 1)))
(assert (< 6 (+ n_VAR 1)))
(assert (< 7 (+ n_VAR 1)))
(assert (< 8 (+ n_VAR 1)))
(assert (< 9 (+ n_VAR 1)))
(assert (< 10 (+ n_VAR 1)))
(assert (< 11 (+ n_VAR 1)))
(assert (< 12 (+ n_VAR 1)))
(assert (< 13 (+ n_VAR 1)))
(assert (< 14 (+ n_VAR 1)))
(assert (< 15 (+ n_VAR 1)))
(assert (< 16 (+ n_VAR 1)))
(assert (< 17 (+ n_VAR 1)))
(assert (< 18 (+ n_VAR 1)))
(assert (< 19 (+ n_VAR 1)))
(assert (< 20 (+ n_VAR 1)))
(assert (< 21 (+ n_VAR 1)))
(assert (< 22 (+ n_VAR 1)))
(assert (< 23 (+ n_VAR 1)))
(assert (< 24 (+ n_VAR 1)))
(assert (< 25 (+ n_VAR 1)))
(assert (< 26 (+ n_VAR 1)))
(assert (< 27 (+ n_VAR 1)))
(assert (< 28 (+ n_VAR 1)))
(assert (< 29 (+ n_VAR 1)))
(assert (< 30 (+ n_VAR 1)))
(assert (< 31 (+ n_VAR 1)))
(assert (< 32 (+ n_VAR 1)))
(assert (< 33 (+ n_VAR 1)))
(assert (< 34 (+ n_VAR 1)))
(assert (< 35 (+ n_VAR 1)))
(assert (< 36 (+ n_VAR 1)))
(assert (< 37 (+ n_VAR 1)))
(assert (< 38 (+ n_VAR 1)))
(assert (< 39 (+ n_VAR 1)))
(assert (< 40 (+ n_VAR 1)))
(assert (< 41 (+ n_VAR 1)))
(assert (< 42 (+ n_VAR 1)))
(assert (< 43 (+ n_VAR 1)))
(assert (< 44 (+ n_VAR 1)))
(assert (< 45 (+ n_VAR 1)))
(assert (< 46 (+ n_VAR 1)))
(assert (< 47 (+ n_VAR 1)))
(assert (< 48 (+ n_VAR 1)))
(assert (< 49 (+ n_VAR 1)))
(assert (< 50 (+ n_VAR 1)))
(assert (< 51 (+ n_VAR 1)))
(assert (< 52 (+ n_VAR 1)))
(assert (< 53 (+ n_VAR 1)))
(assert (< 54 (+ n_VAR 1)))
(assert (< 55 (+ n_VAR 1)))
(assert (< 56 (+ n_VAR 1)))
(assert (< 57 (+ n_VAR 1)))
(assert (< 58 (+ n_VAR 1)))
(assert (< 59 (+ n_VAR 1)))
(assert (< 60 (+ n_VAR 1)))
(assert (< 61 (+ n_VAR 1)))
(assert (< 62 (+ n_VAR 1)))
(assert (< 63 (+ n_VAR 1)))
(assert (< 64 (+ n_VAR 1)))
(assert (< 65 (+ n_VAR 1)))
(assert (< 66 (+ n_VAR 1)))
(assert (< 67 (+ n_VAR 1)))
(assert (< 68 (+ n_VAR 1)))
(assert (< 69 (+ n_VAR 1)))
(assert (< 70 (+ n_VAR 1)))
(assert (< 71 (+ n_VAR 1)))
(assert (< 72 (+ n_VAR 1)))
(assert (< 73 (+ n_VAR 1)))
(assert (< 74 (+ n_VAR 1)))
(assert (< 75 (+ n_VAR 1)))
(assert (< 76 (+ n_VAR 1)))
(assert (< 77 (+ n_VAR 1)))
(assert (< 78 (+ n_VAR 1)))
(assert (< 79 (+ n_VAR 1)))
(assert (< 80 (+ n_VAR 1)))
(assert (< 81 (+ n_VAR 1)))
(assert (< 82 (+ n_VAR 1)))
(assert (< 83 (+ n_VAR 1)))
(assert (< 84 (+ n_VAR 1)))
(assert (< 85 (+ n_VAR 1)))
(assert (< 86 (+ n_VAR 1)))
(assert (< 87 (+ n_VAR 1)))
(assert (< 88 (+ n_VAR 1)))
(assert (< 89 (+ n_VAR 1)))
(assert (< 90 (+ n_VAR 1)))
(assert (< 91 (+ n_VAR 1)))
(assert (< 92 (+ n_VAR 1)))
(assert (< 93 (+ n_VAR 1)))
(assert (< 94 (+ n_VAR 1)))
(assert (< 95 (+ n_VAR 1)))
(assert (< 96 (+ n_VAR 1)))
(assert (< 97 (+ n_VAR 1)))
(assert (< 98 (+ n_VAR 1)))
(assert (< 99 (+ n_VAR 1)))
(assert (< 100 (+ n_VAR 1)))
(assert (< 101 (+ n_VAR 1)))
(assert (< 102 (+ n_VAR 1)))
(assert (< 103 (+ n_VAR 1)))
(assert (< 104 (+ n_VAR 1)))
(assert (< 105 (+ n_VAR 1)))
(assert (< 106 (+ n_VAR 1)))
(assert (< 107 (+ n_VAR 1)))
(assert (< 108 (+ n_VAR 1)))
(assert (< 109 (+ n_VAR 1)))
(assert (< 110 (+ n_VAR 1)))
(assert (< 111 (+ n_VAR 1)))
(assert (< 112 (+ n_VAR 1)))
(assert (< 113 (+ n_VAR 1)))
(assert (< 114 (+ n_VAR 1)))
(assert (< 115 (+ n_VAR 1)))
(assert (< 116 (+ n_VAR 1)))
(assert (< 117 (+ n_VAR 1)))
(assert (< 118 (+ n_VAR 1)))
(assert (< 119 (+ n_VAR 1)))
(assert (< 120 (+ n_VAR 1)))
(assert (< 121 (+ n_VAR 1)))
(assert (< 122 (+ n_VAR 1)))
(assert (< 123 (+ n_VAR 1)))
(assert (< 124 (+ n_VAR 1)))
(assert (< 125 (+ n_VAR 1)))
(assert (< 126 (+ n_VAR 1)))
(assert (< 127 (+ n_VAR 1)))
(assert (< 128 (+ n_VAR 1)))
(assert (< 129 (+ n_VAR 1)))
(assert (< 130 (+ n_VAR 1)))
(assert (< 131 (+ n_VAR 1)))
(assert (< 132 (+ n_VAR 1)))
(assert (< 133 (+ n_VAR 1)))
(assert (< 134 (+ n_VAR 1)))
(assert (< 135 (+ n_VAR 1)))
(assert (< 136 (+ n_VAR 1)))
(assert (< 137 (+ n_VAR 1)))
(assert (< 138 (+ n_VAR 1)))
(assert (< 139 (+ n_VAR 1)))
(assert (< 140 (+ n_VAR 1)))
(assert (< 141 (+ n_VAR 1)))
(assert (< 142 (+ n_VAR 1)))
(assert (< 143 (+ n_VAR 1)))
(assert (< 144 (+ n_VAR 1)))
(assert (< 145 (+ n_VAR 1)))
(assert (< 146 (+ n_VAR 1)))
(assert (< 147 (+ n_VAR 1)))
(assert (< 148 (+ n_VAR 1)))
(assert (< 149 (+ n_VAR 1)))
(assert (< 150 (+ n_VAR 1)))
(assert (< 151 (+ n_VAR 1)))
(assert (< 152 (+ n_VAR 1)))
(assert (< 153 (+ n_VAR 1)))
(assert (< 154 (+ n_VAR 1)))
(assert (< 155 (+ n_VAR 1)))
(assert (< 156 (+ n_VAR 1)))
(assert (< 157 (+ n_VAR 1)))
(assert (< 158 (+ n_VAR 1)))
(assert (< 159 (+ n_VAR 1)))
(assert (< 160 (+ n_VAR 1)))
(assert (< 161 (+ n_VAR 1)))
(assert (< 162 (+ n_VAR 1)))
(assert (< 163 (+ n_VAR 1)))
(assert (< 164 (+ n_VAR 1)))
(assert (< 165 (+ n_VAR 1)))
(assert (< 166 (+ n_VAR 1)))
(assert (< 167 (+ n_VAR 1)))
(assert (< 168 (+ n_VAR 1)))
(assert (< 169 (+ n_VAR 1)))
(assert (< 170 (+ n_VAR 1)))
(assert (< 171 (+ n_VAR 1)))
(assert (< 172 (+ n_VAR 1)))
(assert (< 173 (+ n_VAR 1)))
(assert (< 174 (+ n_VAR 1)))
(assert (< 175 (+ n_VAR 1)))
(assert (< 176 (+ n_VAR 1)))
(assert (< 177 (+ n_VAR 1)))
(assert (< 178 (+ n_VAR 1)))
(assert (< 179 (+ n_VAR 1)))
(assert (< 180 (+ n_VAR 1)))
(assert (< 181 (+ n_VAR 1)))
(assert (< 182 (+ n_VAR 1)))
(assert (< 183 (+ n_VAR 1)))
(assert (< 184 (+ n_VAR 1)))
(assert (< 185 (+ n_VAR 1)))
(assert (< 186 (+ n_VAR 1)))
(assert (< 187 (+ n_VAR 1)))
(assert (< 188 (+ n_VAR 1)))
(assert (< 189 (+ n_VAR 1)))
(assert (< 190 (+ n_VAR 1)))
(assert (< 191 (+ n_VAR 1)))
(assert (< 192 (+ n_VAR 1)))
(assert (< 193 (+ n_VAR 1)))
(assert (< 194 (+ n_VAR 1)))
(assert (< 195 (+ n_VAR 1)))
(assert (< 196 (+ n_VAR 1)))
(assert (< 197 (+ n_VAR 1)))
(assert (< 198 (+ n_VAR 1)))
(assert (< 199 (+ n_VAR 1)))
(assert (< 200 (+ n_VAR 1)))
(assert (< 201 (+ n_VAR 1)))
(assert (< 202 (+ n_VAR 1)))
(assert (< 203 (+ n_VAR 1)))
(assert (< 204 (+ n_VAR 1)))
(assert (< 205 (+ n_VAR 1)))
(assert (< 206 (+ n_VAR 1)))
(assert (< 207 (+ n_VAR 1)))
(assert (< 208 (+ n_VAR 1)))
(assert (< 209 (+ n_VAR 1)))
(assert (< 210 (+ n_VAR 1)))
(assert (< 211 (+ n_VAR 1)))
(assert (< 212 (+ n_VAR 1)))
(assert (< 213 (+ n_VAR 1)))
(assert (< 214 (+ n_VAR 1)))
(assert (< 215 (+ n_VAR 1)))
(assert (< 216 (+ n_VAR 1)))
(assert (< 217 (+ n_VAR 1)))
(assert (< 218 (+ n_VAR 1)))
(assert (< 219 (+ n_VAR 1)))
(assert (< 220 (+ n_VAR 1)))
(assert (< 221 (+ n_VAR 1)))
(assert (< 222 (+ n_VAR 1)))
(assert (< 223 (+ n_VAR 1)))
(assert (< 224 (+ n_VAR 1)))
(assert (< 225 (+ n_VAR 1)))
(assert (< 226 (+ n_VAR 1)))
(assert (< 227 (+ n_VAR 1)))
(assert (< 228 (+ n_VAR 1)))
(assert (< 229 (+ n_VAR 1)))
(assert (< 230 (+ n_VAR 1)))
(assert (< 231 (+ n_VAR 1)))
(assert (< 232 (+ n_VAR 1)))
(assert (< 233 (+ n_VAR 1)))
(assert (< 234 (+ n_VAR 1)))
(assert (< 235 (+ n_VAR 1)))
(assert (< 236 (+ n_VAR 1)))
(assert (< 237 (+ n_VAR 1)))
(assert (< 238 (+ n_VAR 1)))
(assert (< 239 (+ n_VAR 1)))
(assert (< 240 (+ n_VAR 1)))
(assert (< 241 (+ n_VAR 1)))
(assert (< 242 (+ n_VAR 1)))
(assert (< 243 (+ n_VAR 1)))
(assert (< 244 (+ n_VAR 1)))
(assert (< 245 (+ n_VAR 1)))
(assert (< 246 (+ n_VAR 1)))
(assert (< 247 (+ n_VAR 1)))
(assert (< 248 (+ n_VAR 1)))
(assert (< 249 (+ n_VAR 1)))
(assert (< 250 (+ n_VAR 1)))
(assert (< 251 (+ n_VAR 1)))
(assert (< 252 (+ n_VAR 1)))
(assert (< 253 (+ n_VAR 1)))
(assert (< 254 (+ n_VAR 1)))
(assert (< 255 (+ n_VAR 1)))
(assert (< 256 (+ n_VAR 1)))
(assert (< 257 (+ n_VAR 1)))
(assert (< 258 (+ n_VAR 1)))
(assert (< 259 (+ n_VAR 1)))
(assert (< 260 (+ n_VAR 1)))
(assert (< 261 (+ n_VAR 1)))
(assert (< 262 (+ n_VAR 1)))
(assert (< 263 (+ n_VAR 1)))
(assert (< 264 (+ n_VAR 1)))
(assert (< 265 (+ n_VAR 1)))
(assert (< 266 (+ n_VAR 1)))
(assert (< 267 (+ n_VAR 1)))
(assert (< 268 (+ n_VAR 1)))
(assert (< 269 (+ n_VAR 1)))
(assert (< 270 (+ n_VAR 1)))
(assert (< 271 (+ n_VAR 1)))
(assert (< 272 (+ n_VAR 1)))
(assert (< 273 (+ n_VAR 1)))
(assert (< 274 (+ n_VAR 1)))
(assert (< 275 (+ n_VAR 1)))
(check-sat)
(get-value (n_VAR))
